c DCNF-Autarky [version 0.0.1]. 
c Copyright (c) 2018-2019 Swansea University. 
c 
c Input QBF/DQBF path: Castellini18//toilet_c_10_01.3.qdimacs
c Output SAT Translation Path: /tmp/toilet_c_10_01.3.qdimacs-dcnfAutarky.dimacs
c Input Clause Count (tautology free): 474
c
c Performing E1-Autarky iteration.
c Remaining clauses count after E-Reduction: 419
c
c Performing A1-Autarky iteration.
c Running Lingeling ... 
c
c Remaining clauses count after A-Reduction: 419
c
c Input Parameter (command line, file): 
c input filename   Castellini18//toilet_c_10_01.3.qdimacs
c output filename  /tmp/toilet_c_10_01.3.qdimacs-dcnfAutarky.dimacs
c autarky level    1
c conformity level 0
c encoding type    2
c no.of var        100
c no.of clauses    474
c no.of taut cls   0
c 
c Output Parameters: 
c remaining no.of clauses  419
c
c filename pn pc autarky ntaut rpa rpe rpcdiff result
c "Castellini18//toilet_c_10_01.3.qdimacs" 100 474 "E1+A1" 0 4 85 55 "RED" 
p cnf 100 419
e 33 34 35 36 37 38 39 40 41 42 43 44 45 46 47 48 49 50 51 52 53 54 55 56 57 58 59 60 61 62 63 64 65 0
a 78 77 76 79 0
e 1 2 3 4 5 6 7 8 9 10 11 12 13 14 15 16 17 18 19 20 21 22 23 24 25 26 27 28 29 30 31 32 66 67 68 69 70 71 72 73 74 75 80 81 82 83 84 85 86 87 88 89 90 91 92 93 94 95 96 97 98 99 100 0
-78 -80 76 77 79 0
-78 -81 76 77 79 0
-78 -82 76 77 79 0
-78 -83 76 77 79 0
-78 -84 76 77 79 0
-78 -85 76 77 79 0
-78 -86 76 77 79 0
-78 76 77 79 87 0
-78 -88 76 77 79 0
-78 -89 76 77 79 0
-76 -77 -79 -80 78 0
-76 -77 -79 -81 78 0
-76 -77 -79 -82 78 0
-76 -77 -79 -83 78 0
-76 -77 -79 -84 78 0
-76 -77 -79 -85 78 0
-76 -77 -79 78 86 0
-76 -77 -79 -87 78 0
-76 -77 -79 -88 78 0
-76 -77 -79 -89 78 0
-76 -77 -80 78 79 0
-76 -77 -81 78 79 0
-76 -77 -82 78 79 0
-76 -77 -83 78 79 0
-76 -77 -84 78 79 0
-76 -77 78 79 85 0
-76 -77 -86 78 79 0
-76 -77 -87 78 79 0
-76 -77 -88 78 79 0
-76 -77 -89 78 79 0
-77 -79 -80 76 78 0
-77 -79 -81 76 78 0
-77 -79 -82 76 78 0
-77 -79 -83 76 78 0
-77 -79 76 78 84 0
-77 -79 -85 76 78 0
-77 -79 -86 76 78 0
-77 -79 -87 76 78 0
-77 -79 -88 76 78 0
-77 -79 -89 76 78 0
-77 -80 76 78 79 0
-77 -81 76 78 79 0
-77 -82 76 78 79 0
-77 76 78 79 83 0
-77 -84 76 78 79 0
-77 -85 76 78 79 0
-77 -86 76 78 79 0
-77 -87 76 78 79 0
-77 -88 76 78 79 0
-77 -89 76 78 79 0
-76 -79 -80 77 78 0
-76 -79 -81 77 78 0
-76 -79 77 78 82 0
-76 -79 -83 77 78 0
-76 -79 -84 77 78 0
-76 -79 -85 77 78 0
-76 -79 -86 77 78 0
-76 -79 -87 77 78 0
-76 -79 -88 77 78 0
-76 -79 -89 77 78 0
-76 -80 77 78 79 0
-76 77 78 79 81 0
-76 -82 77 78 79 0
-76 -83 77 78 79 0
-76 -84 77 78 79 0
-76 -85 77 78 79 0
-76 -86 77 78 79 0
-76 -87 77 78 79 0
-76 -88 77 78 79 0
-76 -89 77 78 79 0
-79 76 77 78 80 0
-79 -81 76 77 78 0
-79 -82 76 77 78 0
-79 -83 76 77 78 0
-79 -84 76 77 78 0
-79 -85 76 77 78 0
-79 -86 76 77 78 0
-79 -87 76 77 78 0
-79 -88 76 77 78 0
-79 -89 76 77 78 0
-80 76 77 78 79 0
-81 76 77 78 79 0
-82 76 77 78 79 0
-83 76 77 78 79 0
-84 76 77 78 79 0
-85 76 77 78 79 0
-86 76 77 78 79 0
-87 76 77 78 79 0
-88 76 77 78 79 0
76 77 78 79 89 0
-78 -79 -80 76 77 0
-78 -79 -81 76 77 0
-78 -79 -82 76 77 0
-78 -79 -83 76 77 0
-78 -79 -84 76 77 0
-78 -79 -85 76 77 0
-78 -79 -86 76 77 0
-78 -79 -87 76 77 0
-78 -79 76 77 88 0
-78 -79 -89 76 77 0
-90 0
-91 0
-92 0
-93 0
-94 0
-95 0
-96 0
-97 0
-98 0
-99 0
-100 0
-33 -100 0
-33 -90 0
-3 -34 0
-1 -34 0
-36 -91 0
-36 -100 0
-6 -37 0
-3 -37 0
-39 -92 0
-39 -100 0
-9 -40 0
-3 -40 0
-42 -93 0
-42 -100 0
-12 -43 0
-3 -43 0
-45 -94 0
-45 -100 0
-15 -46 0
-3 -46 0
-48 -95 0
-48 -100 0
-18 -49 0
-3 -49 0
-51 -96 0
-51 -100 0
-21 -52 0
-3 -52 0
-54 -97 0
-54 -100 0
-24 -55 0
-3 -55 0
-57 -98 0
-57 -100 0
-27 -58 0
-3 -58 0
-60 -99 0
-60 -100 0
-30 -62 0
-3 -62 0
-61 100 0
-63 3 0
-33 3 0
-5 -33 0
-33 1 0
-34 4 0
-34 -66 0
-34 2 0
-36 6 0
-8 -36 0
-36 3 0
-37 7 0
-37 -67 0
-37 4 0
-39 9 0
-11 -39 0
-39 3 0
-40 10 0
-40 -68 0
-40 4 0
-42 12 0
-14 -42 0
-42 3 0
-43 13 0
-43 -69 0
-43 4 0
-45 15 0
-17 -45 0
-45 3 0
-46 16 0
-46 -70 0
-46 4 0
-48 18 0
-20 -48 0
-48 3 0
-49 19 0
-49 -71 0
-49 4 0
-51 21 0
-23 -51 0
-51 3 0
-52 22 0
-52 -72 0
-52 4 0
-54 24 0
-26 -54 0
-54 3 0
-55 25 0
-55 -73 0
-55 4 0
-57 27 0
-29 -57 0
-57 3 0
-58 28 0
-58 -74 0
-58 4 0
-60 30 0
-32 -60 0
-60 3 0
-62 31 0
-62 -75 0
-62 4 0
-3 -61 0
-4 -63 0
-1 33 90 0
-2 1 34 0
-90 1 0
-1 2 0
-3 33 36 39 42 45 48 51 54 57 60 100 0
-4 3 34 37 40 43 46 49 52 55 58 62 0
-100 3 61 0
-3 4 63 0
-5 89 0
-66 5 0
-89 5 33 0
-5 34 66 0
-6 36 91 0
-7 6 37 0
-91 6 0
-6 7 0
-8 80 0
-67 8 0
-80 8 36 0
-8 37 67 0
-9 39 92 0
-10 9 40 0
-92 9 0
-9 10 0
-11 81 0
-68 11 0
-81 11 39 0
-11 40 68 0
-12 42 93 0
-13 12 43 0
-93 12 0
-12 13 0
-14 82 0
-69 14 0
-82 14 42 0
-14 43 69 0
-15 45 94 0
-16 15 46 0
-94 15 0
-15 16 0
-17 83 0
-70 17 0
-83 17 45 0
-17 46 70 0
-18 48 95 0
-19 18 49 0
-95 18 0
-18 19 0
-20 84 0
-71 20 0
-84 20 48 0
-20 49 71 0
-21 51 96 0
-22 21 52 0
-96 21 0
-21 22 0
-23 85 0
-72 23 0
-85 23 51 0
-23 52 72 0
-24 54 97 0
-25 24 55 0
-97 24 0
-24 25 0
-26 86 0
-73 26 0
-86 26 54 0
-26 55 73 0
-27 57 98 0
-28 27 58 0
-98 27 0
-27 28 0
-29 87 0
-74 29 0
-87 29 57 0
-29 58 74 0
-30 60 99 0
-31 30 62 0
-99 30 0
-30 31 0
-32 88 0
-75 32 0
-88 32 60 0
-32 62 75 0
-33 -36 0
-34 -37 0
-33 -39 0
-34 -40 0
-33 -42 0
-34 -43 0
-33 -45 0
-34 -46 0
-33 -48 0
-34 -49 0
-33 -51 0
-34 -52 0
-33 -54 0
-34 -55 0
-33 -57 0
-34 -58 0
-33 -60 0
-34 -62 0
-33 -61 0
-34 -63 0
-36 -39 0
-37 -40 0
-36 -42 0
-37 -43 0
-36 -45 0
-37 -46 0
-36 -48 0
-37 -49 0
-36 -51 0
-37 -52 0
-36 -54 0
-37 -55 0
-36 -57 0
-37 -58 0
-36 -60 0
-37 -62 0
-36 -61 0
-37 -63 0
-39 -42 0
-40 -43 0
-39 -45 0
-40 -46 0
-39 -48 0
-40 -49 0
-39 -51 0
-40 -52 0
-39 -54 0
-40 -55 0
-39 -57 0
-40 -58 0
-39 -60 0
-40 -62 0
-39 -61 0
-40 -63 0
-42 -45 0
-43 -46 0
-42 -48 0
-43 -49 0
-42 -51 0
-43 -52 0
-42 -54 0
-43 -55 0
-42 -57 0
-43 -58 0
-42 -60 0
-43 -62 0
-42 -61 0
-43 -63 0
-45 -48 0
-46 -49 0
-45 -51 0
-46 -52 0
-45 -54 0
-46 -55 0
-45 -57 0
-46 -58 0
-45 -60 0
-46 -62 0
-45 -61 0
-46 -63 0
-48 -51 0
-49 -52 0
-48 -54 0
-49 -55 0
-48 -57 0
-49 -58 0
-48 -60 0
-49 -62 0
-48 -61 0
-49 -63 0
-51 -54 0
-52 -55 0
-51 -57 0
-52 -58 0
-51 -60 0
-52 -62 0
-51 -61 0
-52 -63 0
-54 -57 0
-55 -58 0
-54 -60 0
-55 -62 0
-54 -61 0
-55 -63 0
-57 -60 0
-58 -62 0
-57 -61 0
-58 -63 0
-60 -61 0
-62 -63 0
-66 0
-67 0
-68 0
-69 0
-70 0
-71 0
-72 0
-73 0
-74 0
-75 0
